  (declare-datatypes () ((MyBool (MyTrue) (MyFalse))))
  (declare-datatypes () ((Unit (Null))))
  (declare-datatypes () ((Nat (Zero) (Succ (proj_Succ_0 Nat)))))
  (declare-datatypes () ((List (Nil (proj_Nil_0 Unit)) (Cons (proj_Cons_0 Nat) (proj_Cons_1 List)))))
  (declare-datatypes () ((IDList (Inil (proj_Inil_0 Unit)) (Icons (proj_Icons_0 Nat) (proj_Icons_1 Nat) (proj_Icons_2 IDList)))))
  (declare-fun plus (Nat Nat) Nat)
  (declare-fun tf1 (IDList) Nat)
  (declare-fun tf0 (IDList) Nat)
  (declare-fun length (IDList) Nat)
  (declare-fun myand (MyBool MyBool) MyBool)
  (declare-fun nateq (Nat Nat) MyBool)
  (declare-fun tf3 (IDList) MyBool)
  (declare-fun tf2 (IDList) MyBool)
  (declare-fun isindexed (IDList) MyBool)
  (declare-fun tf5 (IDList) List)
  (declare-fun tf4 (IDList) List)
  (declare-fun repr (IDList) List)
  (declare-fun gq (Nat Nat) MyBool)
  (declare-fun ite2 (MyBool Nat Nat) Nat)
  (declare-fun max (Nat) Nat)
  (declare-datatypes () ((Tuple3 (MakeTuple3 (proj_MakeTuple3_0 Nat) (proj_MakeTuple3_1 Nat)))))
  (declare-fun snd3 (Tuple3) Nat)
  (declare-fun fst3 (Tuple3) Nat)
  (declare-fun tf7 (List) Tuple3)
  (declare-fun tf6 (List) Tuple3)
  (declare-fun spec (List) Tuple3)
  (declare-fun tf9 (IDList IDList) IDList)
  (declare-fun tf8 (IDList) IDList)
  (declare-fun target (IDList) IDList)
  (declare-fun ite3 (MyBool Tuple3) Tuple3)
  (declare-fun main (IDList) Tuple3)
  (declare-fun leq (Nat Nat) MyBool)
  (declare-fun tf11 (IDList) Tuple3)
  (declare-fun tf10 (IDList) Tuple3)
  (declare-fun targetNew (IDList) Tuple3)
  (declare-fun mainNew (IDList) Tuple3)
  (assert (forall ((x Nat)) (= (plus Zero x) x)))
  (assert (forall ((y Nat) (x Nat)) (= (plus (Succ x) y) (Succ (plus x y)))))
  (assert (forall ((tv3 Unit)) (= (tf1 (Inil tv3)) Zero)))
  (assert (forall ((tv6 IDList) (tv5 Nat) (tv4 Nat)) (= (tf1 (Icons tv4 tv5 tv6)) (plus (Succ Zero) (tf0 tv6)))))
  (assert (forall ((tv1 IDList)) (= (tf0 tv1) (tf1 tv1))))
  (assert (forall ((tv0 IDList)) (= (length tv0) (tf0 tv0))))
  (assert (forall ((x MyBool)) (= (myand MyFalse x) MyFalse)))
  (assert (forall ((true MyBool)) (= (myand true MyFalse) MyFalse)))
  (assert (= (myand MyTrue MyTrue) MyTrue))
  (assert (= (nateq Zero Zero) MyTrue))
  (assert (forall ((x Nat)) (= (nateq Zero (Succ x)) MyFalse)))
  (assert (forall ((x Nat)) (= (nateq (Succ x) Zero) MyFalse)))
  (assert (forall ((y Nat) (x Nat)) (= (nateq (Succ x) (Succ y)) (nateq x y))))
  (assert (forall ((tv10 Unit)) (= (tf3 (Inil tv10)) MyTrue)))
  (assert (forall ((tv13 IDList) (tv12 Nat) (tv11 Nat)) (= (tf3 (Icons tv11 tv12 tv13)) (myand (tf2 tv13) (nateq tv12 (length tv13))))))
  (assert (forall ((tv8 IDList)) (= (tf2 tv8) (tf3 tv8))))
  (assert (forall ((tv7 IDList)) (= (isindexed tv7) (tf2 tv7))))
  (assert (forall ((tv17 Unit)) (= (tf5 (Inil tv17)) (Nil Null))))
  (assert (forall ((tv20 IDList) (tv19 Nat) (tv18 Nat)) (= (tf5 (Icons tv18 tv19 tv20)) (Cons tv18 (tf4 tv20)))))
  (assert (forall ((tv15 IDList)) (= (tf4 tv15) (tf5 tv15))))
  (assert (forall ((tv14 IDList)) (= (repr tv14) (tf4 tv14))))
  (assert (forall ((x Nat)) (= (gq Zero x) MyFalse)))
  (assert (forall ((x Nat)) (= (gq (Succ x) Zero) MyTrue)))
  (assert (forall ((y Nat) (x Nat)) (= (gq (Succ x) (Succ y)) (gq x y))))
  (assert (forall ((y Nat) (x Nat)) (= (ite2 MyTrue x y) x)))
  (assert (forall ((y Nat) (x Nat)) (= (ite2 MyFalse x y) y)))
  (assert (forall ((tv21 Nat)) (= (max tv21) (ite2 (gq tv21 Zero) tv21 Zero))))
  (assert (forall ((x1 Nat) (x0 Nat)) (= (snd3 (MakeTuple3 x0 x1)) x1)))
  (assert (forall ((x1 Nat) (x0 Nat)) (= (fst3 (MakeTuple3 x0 x1)) x0)))
  (assert (forall ((tv26 Unit)) (= (tf7 (Nil tv26)) (MakeTuple3 Zero Zero))))
  (assert (forall ((tv28 List) (tv27 Nat)) (= (tf7 (Cons tv27 tv28)) (MakeTuple3 (ite2 (gq tv27 (snd3 (tf6 tv28))) (max (plus (fst3 (tf6 tv28)) tv27)) (fst3 (tf6 tv28))) (plus (snd3 (tf6 tv28)) (Succ Zero))))))
  (assert (forall ((tv24 List)) (= (tf6 tv24) (tf7 tv24))))
  (assert (forall ((tv23 List)) (= (spec tv23) (tf6 tv23))))
  (assert (forall ((tv33 Unit) (tv32 IDList)) (= (tf9 tv32 (Inil tv33)) tv32)))
  (assert (forall ((tv35 Nat) (tv36 IDList) (tv34 Nat) (tv32 IDList)) (= (tf9 tv32 (Icons tv34 tv35 tv36)) (Icons tv34 tv35 (tf8 tv36)))))
  (assert (forall ((tv30 IDList)) (= (tf8 tv30) (tf9 tv30 tv30))))
  (assert (forall ((tv29 IDList)) (= (target tv29) (tf8 tv29))))
  (assert (forall ((x Tuple3)) (= (ite3 MyTrue x) x)))
  (assert (forall ((x Tuple3)) (= (ite3 MyFalse x) (MakeTuple3 Zero Zero))))
  (assert (forall ((tv37 IDList)) (= (main tv37) (ite3 (isindexed tv37) (spec (repr (target tv37)))))))
  (assert (forall ((x Nat)) (= (leq Zero x) MyTrue)))
  (assert (forall ((x Nat)) (= (leq (Succ x) Zero) MyFalse)))
  (assert (forall ((y Nat) (x Nat)) (= (leq (Succ x) (Succ y)) (leq x y))))
  (assert (forall ((tv41 Unit)) (= (tf11 (Inil tv41)) (MakeTuple3 Zero Zero))))
  (assert (forall ((tv44 IDList) (tv43 Nat) (tv42 Nat)) (= (tf11 (Icons tv42 tv43 tv44)) (MakeTuple3 (ite2 (leq tv42 (snd3 (tf10 tv44))) (fst3 (tf10 tv44)) (plus (fst3 (tf10 tv44)) tv42)) (plus (Succ Zero) (snd3 (tf10 tv44)))))))
  (assert (forall ((tv39 IDList)) (= (tf10 tv39) (tf11 tv39))))
  (assert (forall ((tv38 IDList)) (= (targetNew tv38) (tf10 tv38))))
  (assert (forall ((tv45 IDList)) (= (mainNew tv45) (ite3 (isindexed tv45) (MakeTuple3 (fst3 (targetNew tv45)) (snd3 (targetNew tv45)))))))
  (assert (not (forall ((inp0 IDList)) (= (main inp0) (mainNew inp0)))))
  (check-sat)
